<?xml version="1.0" encoding="UTF-8"?><osil xmlns="os.optimizationservices.org"   xmlns:xsi="http://www.w3.org/2001/XMLSchema-instance" xsi:schemaLocation="os.optimizationservices.org http://www.optimizationservices.org/schemas/2.0/OSiL.xsd" ><instanceHeader><name>q_20_0_75_5</name></instanceHeader><instanceData><variables numberOfVariables="20"><var name="x1" ub="1"/><var name="x2" ub="1"/><var name="x3" ub="1"/><var name="x4" ub="1"/><var name="x5" ub="1"/><var name="x6" ub="1"/><var name="x7" ub="1"/><var name="x8" ub="1"/><var name="x9" ub="1"/><var name="x10" ub="1"/><var name="x11" ub="1"/><var name="x12" ub="1"/><var name="x13" ub="1"/><var name="x14" ub="1"/><var name="x15" ub="1"/><var name="x16" ub="1"/><var name="x17" ub="1"/><var name="x18" ub="1"/><var name="x19" ub="1"/><var name="x20" ub="1"/></variables><objectives numberOfObjectives="1"><obj maxOrMin="min" name="defObj_x21" numberOfObjCoef="20"><coef idx="0">.6815</coef><coef idx="1">-9.66e-2</coef><coef idx="2">-.1797</coef><coef idx="3">-.7994</coef><coef idx="4">.6868</coef><coef idx="5">.4518</coef><coef idx="6">.8514</coef><coef idx="7">.6759</coef><coef idx="8">-.6871</coef><coef idx="9">.6584</coef><coef idx="10">-.2458</coef><coef idx="11">.6472</coef><coef idx="12">-.3359</coef><coef idx="13">-.863</coef><coef idx="14">.1233</coef><coef idx="15">.6612</coef><coef idx="16">.2013</coef><coef idx="17">.6938</coef><coef idx="18">-.7642</coef><coef idx="19">.3951</coef></obj></objectives><quadraticCoefficients  numberOfQuadraticTerms="110" ><qTerm  idx="-1"  idxOne="0"  idxTwo="0"  coef="-.9667"/><qTerm  idx="-1"  idxOne="0"  idxTwo="2"  coef="-.328"/><qTerm  idx="-1"  idxOne="0"  idxTwo="3"  coef=".185"/><qTerm  idx="-1"  idxOne="0"  idxTwo="4"  coef="-.1588"/><qTerm  idx="-1"  idxOne="0"  idxTwo="7"  coef="-.6343"/><qTerm  idx="-1"  idxOne="0"  idxTwo="8"  coef=".7847"/><qTerm  idx="-1"  idxOne="0"  idxTwo="9"  coef=".2423"/><qTerm  idx="-1"  idxOne="0"  idxTwo="12"  coef="-.357"/><qTerm  idx="-1"  idxOne="0"  idxTwo="15"  coef="-.2066"/><qTerm  idx="-1"  idxOne="0"  idxTwo="16"  coef="-.1247"/><qTerm  idx="-1"  idxOne="0"  idxTwo="17"  coef="-.9086"/><qTerm  idx="-1"  idxOne="0"  idxTwo="19"  coef="-.4053"/><qTerm  idx="-1"  idxOne="1"  idxTwo="1"  coef="-.6526"/><qTerm  idx="-1"  idxOne="1"  idxTwo="2"  coef="-.7753"/><qTerm  idx="-1"  idxOne="1"  idxTwo="3"  coef=".6139"/><qTerm  idx="-1"  idxOne="1"  idxTwo="5"  coef="6.06e-2"/><qTerm  idx="-1"  idxOne="1"  idxTwo="7"  coef="-.4917"/><qTerm  idx="-1"  idxOne="1"  idxTwo="8"  coef=".82"/><qTerm  idx="-1"  idxOne="1"  idxTwo="10"  coef="-.8487"/><qTerm  idx="-1"  idxOne="1"  idxTwo="12"  coef="-.4958"/><qTerm  idx="-1"  idxOne="1"  idxTwo="17"  coef="-.4949"/><qTerm  idx="-1"  idxOne="2"  idxTwo="2"  coef=".7862"/><qTerm  idx="-1"  idxOne="2"  idxTwo="3"  coef=".7091"/><qTerm  idx="-1"  idxOne="2"  idxTwo="4"  coef="-.6288"/><qTerm  idx="-1"  idxOne="2"  idxTwo="6"  coef=".7083"/><qTerm  idx="-1"  idxOne="2"  idxTwo="7"  coef=".4814"/><qTerm  idx="-1"  idxOne="2"  idxTwo="16"  coef=".1703"/><qTerm  idx="-1"  idxOne="2"  idxTwo="18"  coef=".511"/><qTerm  idx="-1"  idxOne="2"  idxTwo="19"  coef=".9122"/><qTerm  idx="-1"  idxOne="3"  idxTwo="3"  coef=".1772"/><qTerm  idx="-1"  idxOne="3"  idxTwo="4"  coef=".6143"/><qTerm  idx="-1"  idxOne="3"  idxTwo="5"  coef="3.51e-2"/><qTerm  idx="-1"  idxOne="3"  idxTwo="8"  coef="-.6117"/><qTerm  idx="-1"  idxOne="3"  idxTwo="9"  coef=".6903"/><qTerm  idx="-1"  idxOne="3"  idxTwo="10"  coef=".8105"/><qTerm  idx="-1"  idxOne="3"  idxTwo="12"  coef=".3583"/><qTerm  idx="-1"  idxOne="3"  idxTwo="14"  coef=".296"/><qTerm  idx="-1"  idxOne="3"  idxTwo="15"  coef=".6876"/><qTerm  idx="-1"  idxOne="3"  idxTwo="18"  coef="-.393"/><qTerm  idx="-1"  idxOne="3"  idxTwo="19"  coef="-.3819"/><qTerm  idx="-1"  idxOne="4"  idxTwo="4"  coef="-.3434"/><qTerm  idx="-1"  idxOne="4"  idxTwo="6"  coef=".498"/><qTerm  idx="-1"  idxOne="4"  idxTwo="7"  coef=".3344"/><qTerm  idx="-1"  idxOne="4"  idxTwo="8"  coef="-.6604"/><qTerm  idx="-1"  idxOne="4"  idxTwo="10"  coef=".1448"/><qTerm  idx="-1"  idxOne="4"  idxTwo="12"  coef="-.2679"/><qTerm  idx="-1"  idxOne="4"  idxTwo="13"  coef="-.9699"/><qTerm  idx="-1"  idxOne="4"  idxTwo="19"  coef=".4874"/><qTerm  idx="-1"  idxOne="5"  idxTwo="6"  coef="-.2642"/><qTerm  idx="-1"  idxOne="5"  idxTwo="7"  coef="6.11e-2"/><qTerm  idx="-1"  idxOne="5"  idxTwo="10"  coef=".1584"/><qTerm  idx="-1"  idxOne="5"  idxTwo="11"  coef="-.3937"/><qTerm  idx="-1"  idxOne="5"  idxTwo="13"  coef=".9029"/><qTerm  idx="-1"  idxOne="5"  idxTwo="15"  coef="-.3443"/><qTerm  idx="-1"  idxOne="5"  idxTwo="16"  coef=".1484"/><qTerm  idx="-1"  idxOne="5"  idxTwo="17"  coef=".4433"/><qTerm  idx="-1"  idxOne="5"  idxTwo="18"  coef=".3218"/><qTerm  idx="-1"  idxOne="6"  idxTwo="8"  coef="-.2226"/><qTerm  idx="-1"  idxOne="6"  idxTwo="12"  coef=".3904"/><qTerm  idx="-1"  idxOne="6"  idxTwo="14"  coef=".6146"/><qTerm  idx="-1"  idxOne="6"  idxTwo="15"  coef="-.8245"/><qTerm  idx="-1"  idxOne="6"  idxTwo="16"  coef=".8728"/><qTerm  idx="-1"  idxOne="7"  idxTwo="7"  coef="-.3059"/><qTerm  idx="-1"  idxOne="7"  idxTwo="8"  coef=".8877"/><qTerm  idx="-1"  idxOne="7"  idxTwo="12"  coef=".1024"/><qTerm  idx="-1"  idxOne="7"  idxTwo="15"  coef=".1653"/><qTerm  idx="-1"  idxOne="7"  idxTwo="18"  coef="-.3166"/><qTerm  idx="-1"  idxOne="7"  idxTwo="19"  coef=".13"/><qTerm  idx="-1"  idxOne="8"  idxTwo="8"  coef="-.4146"/><qTerm  idx="-1"  idxOne="8"  idxTwo="11"  coef="-1.27e-2"/><qTerm  idx="-1"  idxOne="8"  idxTwo="16"  coef=".4993"/><qTerm  idx="-1"  idxOne="8"  idxTwo="17"  coef=".6925"/><qTerm  idx="-1"  idxOne="8"  idxTwo="19"  coef="-6.77e-2"/><qTerm  idx="-1"  idxOne="9"  idxTwo="10"  coef="-.2175"/><qTerm  idx="-1"  idxOne="9"  idxTwo="12"  coef=".828"/><qTerm  idx="-1"  idxOne="9"  idxTwo="13"  coef="-.1967"/><qTerm  idx="-1"  idxOne="9"  idxTwo="16"  coef=".4211"/><qTerm  idx="-1"  idxOne="10"  idxTwo="14"  coef="-.2497"/><qTerm  idx="-1"  idxOne="10"  idxTwo="18"  coef=".462"/><qTerm  idx="-1"  idxOne="10"  idxTwo="19"  coef="-.7244"/><qTerm  idx="-1"  idxOne="11"  idxTwo="11"  coef=".5054"/><qTerm  idx="-1"  idxOne="11"  idxTwo="12"  coef="-.6719"/><qTerm  idx="-1"  idxOne="11"  idxTwo="13"  coef=".2062"/><qTerm  idx="-1"  idxOne="11"  idxTwo="14"  coef=".4854"/><qTerm  idx="-1"  idxOne="11"  idxTwo="16"  coef="-.8001"/><qTerm  idx="-1"  idxOne="11"  idxTwo="18"  coef=".4813"/><qTerm  idx="-1"  idxOne="12"  idxTwo="13"  coef="-.2475"/><qTerm  idx="-1"  idxOne="12"  idxTwo="16"  coef=".659"/><qTerm  idx="-1"  idxOne="12"  idxTwo="17"  coef="-.8335"/><qTerm  idx="-1"  idxOne="13"  idxTwo="13"  coef=".2203"/><qTerm  idx="-1"  idxOne="13"  idxTwo="14"  coef=".8903"/><qTerm  idx="-1"  idxOne="13"  idxTwo="15"  coef="-.7647"/><qTerm  idx="-1"  idxOne="13"  idxTwo="16"  coef=".5881"/><qTerm  idx="-1"  idxOne="13"  idxTwo="17"  coef="-.3864"/><qTerm  idx="-1"  idxOne="13"  idxTwo="18"  coef="-.5257"/><qTerm  idx="-1"  idxOne="13"  idxTwo="19"  coef="-.5672"/><qTerm  idx="-1"  idxOne="14"  idxTwo="15"  coef="-5.89e-2"/><qTerm  idx="-1"  idxOne="14"  idxTwo="17"  coef="-.1993"/><qTerm  idx="-1"  idxOne="14"  idxTwo="18"  coef="-.4537"/><qTerm  idx="-1"  idxOne="15"  idxTwo="15"  coef=".7725"/><qTerm  idx="-1"  idxOne="15"  idxTwo="16"  coef=".1709"/><qTerm  idx="-1"  idxOne="15"  idxTwo="18"  coef="-6.76e-2"/><qTerm  idx="-1"  idxOne="16"  idxTwo="16"  coef="-.6013"/><qTerm  idx="-1"  idxOne="16"  idxTwo="18"  coef=".8428"/><qTerm  idx="-1"  idxOne="16"  idxTwo="19"  coef="-.6915"/><qTerm  idx="-1"  idxOne="17"  idxTwo="17"  coef=".8838"/><qTerm  idx="-1"  idxOne="17"  idxTwo="18"  coef=".9223"/><qTerm  idx="-1"  idxOne="17"  idxTwo="19"  coef=".5193"/><qTerm  idx="-1"  idxOne="18"  idxTwo="18"  coef=".3182"/><qTerm  idx="-1"  idxOne="19"  idxTwo="19"  coef="-.221"/></quadraticCoefficients></instanceData></osil>
